187
0 60 48 175 151 184 114 36 4 166 
149 65 15 96 138 144 52 103 167 104 
102 165 64 33 162 57 143 32 158 13 
172 84 150 128 67 131 23 73 118 56 
2 66 169 5 153 95 122 59 121 43 
62 179 160 81 101 72 29 185 130 117 
129 18 125 113 92 119 40 58 88 47 
124 90 53 181 156 99 20 49 37 12 
82 91 100 177 10 123 45 55 71 182 
112 50 157 14 24 136 135 27 174 3 
178 61 31 105 51 186 70 116 148 7 
111 146 170 78 110 74 11 161 139 25 
93 38 28 46 42 17 76 77 171 94 
176 109 35 126 115 85 97 107 19 155 
86 133 22 120 141 16 34 106 168 98 
140 79 154 159 164 39 87 69 41 80 
127 180 108 1 142 147 6 163 63 145 
132 173 68 8 30 83 54 75 152 183 
44 134 26 21 137 9 89 
